#######################################
### Exact MIP solver for the HHCRSP ###
#######################################
-- Instance file: new-instances/HHCRSP_75_15_75_0.8_C_C.txt
-- Max threads: 4
-- Time limit: 999999 seconds
-- Use initial solution: No
Trivial flow violations prevented generating 18873 variables.
Model exported.
Version identifier: 20.1.0.0 | 2020-11-10 | 9bedb6d68
CPXPARAM_Threads                                 4
CPXPARAM_TimeLimit                               999999
Parallel mode: deterministic, using up to 4 threads for concurrent optimization:
 * Starting dual Simplex on 1 thread...
 * Starting Barrier on 3 threads...
Tried aggregator 1 time.
LP Presolve eliminated 2562 rows and 512 columns.
Reduced LP has 16144 rows, 15584 columns, and 149787 nonzeros.
Presolve time = 0.07 sec. (41.73 ticks)
Symmetry aggregator did 9764 additional substitutions.

Iteration log . . .
Iteration:     1   Dual objective     =             0.000000
Iteration:   376   Dual objective     =           142.666667

Dual crossover.
  Dual:  Fixing 157 variables.
      156 DMoves:  Infeasibility  5.98965920e-14  Objective  1.44344513e+02
        0 DMoves:  Infeasibility  2.98095614e-14  Objective  1.44344513e+02
  Dual:  Pushed 2, exchanged 155.
  Primal:  Fixing 55 variables.
       54 PMoves:  Infeasibility  7.77156117e-16  Objective  1.44344513e+02
        0 PMoves:  Infeasibility  9.99200722e-16  Objective  1.44344513e+02
  Primal:  Pushed 36, exchanged 19.

Dual simplex solved model.


Solution status from MIP model:
-- Processing time: 0.13 sec.
-- Memory used: 79.5811 MB
-- Best bound: inf
-- Obj value: 144.345
-- Gap: inf%
-- Total distance: 433.034
-- Total tardiness: 0
-- Largest tardiness: 0
